QPLIB_2738
LCQ
minimize
199 # number of variables
200 # number of constraints
-0.03141592654 # default value for linear coefficients in objective
99 # number of non-default linear coefficients in objective
101 0.0
102 0.0
103 0.0
104 0.0
105 0.0
106 0.0
107 0.0
108 0.0
109 0.0
110 0.0
111 0.0
112 0.0
113 0.0
114 0.0
115 0.0
116 0.0
117 0.0
118 0.0
119 0.0
120 0.0
121 0.0
122 0.0
123 0.0
124 0.0
125 0.0
126 0.0
127 0.0
128 0.0
129 0.0
130 0.0
131 0.0
132 0.0
133 0.0
134 0.0
135 0.0
136 0.0
137 0.0
138 0.0
139 0.0
140 0.0
141 0.0
142 0.0
143 0.0
144 0.0
145 0.0
146 0.0
147 0.0
148 0.0
149 0.0
150 0.0
151 0.0
152 0.0
153 0.0
154 0.0
155 0.0
156 0.0
157 0.0
158 0.0
159 0.0
160 0.0
161 0.0
162 0.0
163 0.0
164 0.0
165 0.0
166 0.0
167 0.0
168 0.0
169 0.0
170 0.0
171 0.0
172 0.0
173 0.0
174 0.0
175 0.0
176 0.0
177 0.0
178 0.0
179 0.0
180 0.0
181 0.0
182 0.0
183 0.0
184 0.0
185 0.0
186 0.0
187 0.0
188 0.0
189 0.0
190 0.0
191 0.0
192 0.0
193 0.0
194 0.0
195 0.0
196 0.0
197 0.0
198 0.0
199 0.0
0.0 # objective constant
297 # number of quadratic terms in all constraints
100 32736 1 -2.0
101 33 1 -2.0
102 1 1 3.9996904
103 49 1 -2.0
103 49 1 3.9996904
103 49 1 -2.0
104 1 1 -2.0
104 1 1 3.9996904
104 1 1 -2.0
105 1 1 -2.0
105 1 1 3.9996904
105 1 1 -2.0
106 1 1 -2.0
106 1 1 3.9996904
106 1 1 -2.0
107 82 1 -2.0
107 82 1 3.9996904
107 82 1 -2.0
108 1 1 -2.0
108 1 1 3.9996904
108 1 1 -2.0
109 36024929 1 -2.0
109 36024929 1 3.9996904
109 36024929 1 -2.0
110 1 1 -2.0
110 1 1 3.9996904
110 1 1 -2.0
111 1 -1619059847 -2.0
111 1 -1619059847 3.9996904
111 1 -1619059847 -2.0
112 32736 1 -2.0
112 32736 1 3.9996904
112 32736 1 -2.0
113 1 1 -2.0
113 1 1 3.9996904
113 1 1 -2.0
114 1 1 -2.0
114 1 1 3.9996904
114 1 1 -2.0
115 82 1 -2.0
115 82 1 3.9996904
115 82 1 -2.0
116 1 1 -2.0
116 1 1 3.9996904
116 1 1 -2.0
117 36024929 35980065 -2.0
117 36024929 35980065 3.9996904
117 36024929 35980065 -2.0
118 1 1 -2.0
118 1 1 3.9996904
118 1 1 -2.0
119 34 -1619059847 -2.0
119 34 -1619059847 3.9996904
119 34 -1619059847 -2.0
120 32736 1 -2.0
120 32736 1 3.9996904
120 32736 1 -2.0
121 1 -1619059847 -2.0
121 1 -1619059847 3.9996904
121 1 -1619059847 -2.0
122 32736 1 -2.0
122 32736 1 3.9996904
122 32736 1 -2.0
123 36610673 1 -2.0
123 36610673 1 3.9996904
123 36610673 1 -2.0
124 1 1 -2.0
124 1 1 3.9996904
124 1 1 -2.0
125 35980065 305 -2.0
125 35980065 305 3.9996904
125 35980065 305 -2.0
126 1 1 -2.0
126 1 1 3.9996904
126 1 1 -2.0
127 113 34 -2.0
127 113 34 3.9996904
127 113 34 -2.0
128 1 1 -2.0
128 1 1 3.9996904
128 1 1 -2.0
129 -1619059847 -1642970527 -2.0
129 -1619059847 -1642970527 3.9996904
129 -1619059847 -1642970527 -2.0
130 32736 32736 -2.0
130 32736 32736 3.9996904
130 32736 32736 -2.0
131 36610673 1 -2.0
131 36610673 1 3.9996904
131 36610673 1 -2.0
132 1 1 -2.0
132 1 1 3.9996904
132 1 1 -2.0
133 305 1 -2.0
133 305 1 3.9996904
133 305 1 -2.0
134 1 1 -2.0
134 1 1 3.9996904
134 1 1 -2.0
135 113 1 -2.0
135 113 1 3.9996904
135 113 1 -2.0
136 1 1 -2.0
136 1 1 3.9996904
136 1 1 -2.0
137 35975745 -1642970527 -2.0
137 35975745 -1642970527 3.9996904
137 35975745 -1642970527 -2.0
138 32736 1 -2.0
138 32736 1 3.9996904
138 32736 1 -2.0
139 35979297 1 -2.0
139 35979297 1 3.9996904
139 35979297 1 -2.0
140 1 1 -2.0
140 1 1 3.9996904
140 1 1 -2.0
141 1 1 -2.0
141 1 1 3.9996904
141 1 1 -2.0
142 1 1 -2.0
142 1 1 3.9996904
142 1 1 -2.0
143 1 1 -2.0
143 1 1 3.9996904
143 1 1 -2.0
144 1 1 -2.0
144 1 1 3.9996904
144 1 1 -2.0
145 35975745 1 -2.0
145 35975745 1 3.9996904
145 35975745 1 -2.0
146 1 1 -2.0
146 1 1 3.9996904
146 1 1 -2.0
147 35979297 1 -2.0
147 35979297 1 3.9996904
147 35979297 1 -2.0
148 10 1 -2.0
148 10 1 3.9996904
148 10 1 -2.0
149 1 1 -2.0
149 1 1 3.9996904
149 1 1 -2.0
150 1 1 -2.0
150 1 1 3.9996904
150 1 1 -2.0
151 1 1 -2.0
151 1 1 3.9996904
151 1 1 -2.0
152 1027 1 -2.0
152 1027 1 3.9996904
152 1027 1 -2.0
153 35979777 1 -2.0
153 35979777 1 3.9996904
153 35979777 1 -2.0
154 1 1 -2.0
154 1 1 3.9996904
154 1 1 -2.0
155 34 1 -2.0
155 34 1 3.9996904
155 34 1 -2.0
156 10 1 -2.0
156 10 1 3.9996904
156 10 1 -2.0
157 1818576901 1 -2.0
157 1818576901 1 3.9996904
157 1818576901 1 -2.0
158 32625 1 -2.0
158 32625 1 3.9996904
158 32625 1 -2.0
159 1 -1619059847 -2.0
159 1 -1619059847 3.9996904
159 1 -1619059847 -2.0
160 32736 1027 -2.0
160 32736 1027 3.9996904
160 32736 1027 -2.0
161 35979777 33 -2.0
161 35979777 33 3.9996904
161 35979777 33 -2.0
162 1 1 -2.0
162 1 1 3.9996904
162 1 1 -2.0
163 50 34 -2.0
163 50 34 3.9996904
163 50 34 -2.0
164 1 1 -2.0
164 1 1 3.9996904
164 1 1 -2.0
165 1818576901 1651076122 -2.0
165 1818576901 1651076122 3.9996904
165 1818576901 1651076122 -2.0
166 1852403556 32625 -2.0
166 1852403556 32625 3.9996904
166 1852403556 32625 -2.0
167 1768711012 -1619059847 -2.0
167 1768711012 -1619059847 3.9996904
167 1768711012 -1619059847 -2.0
168 775173731 32736 -2.0
168 775173731 32736 3.9996904
168 775173731 32736 -2.0
169 1646292852 33 -2.0
169 1646292852 33 3.9996904
169 1646292852 33 -2.0
170 824209008 1 -2.0
170 824209008 1 3.9996904
170 824209008 1 -2.0
171 12321 50 -2.0
171 12321 50 3.9996904
171 12321 50 -2.0
172 1 1 -2.0
172 1 1 3.9996904
172 1 1 -2.0
173 1651076122 1 -2.0
173 1651076122 1 3.9996904
173 1651076122 1 -2.0
174 1852403556 1 -2.0
174 1852403556 1 3.9996904
174 1852403556 1 -2.0
175 1768711012 50 -2.0
175 1768711012 50 3.9996904
175 1768711012 50 -2.0
176 775173731 1 -2.0
176 775173731 1 3.9996904
176 775173731 1 -2.0
177 1651076122 1646292852 -2.0
177 1651076122 1646292852 3.9996904
177 1651076122 1646292852 -2.0
178 1852403556 824209008 -2.0
178 1852403556 824209008 3.9996904
178 1852403556 824209008 -2.0
179 1768711012 12321 -2.0
179 1768711012 12321 3.9996904
179 1768711012 12321 -2.0
180 775173731 1 -2.0
180 775173731 1 3.9996904
180 775173731 1 -2.0
181 1663070068 1 -2.0
181 1663070068 1 3.9996904
181 1663070068 1 -2.0
182 824206179 1 -2.0
182 824206179 1 3.9996904
182 824206179 1 -2.0
183 12321 50 -2.0
183 12321 50 3.9996904
183 12321 50 -2.0
184 1 1 -2.0
184 1 1 3.9996904
184 1 1 -2.0
185 1651076122 1 -2.0
185 1651076122 1 3.9996904
185 1651076122 1 -2.0
186 1852403556 1 -2.0
186 1852403556 1 3.9996904
186 1852403556 1 -2.0
187 1768711012 50 -2.0
187 1768711012 50 3.9996904
187 1768711012 50 -2.0
188 775173731 1 -2.0
188 775173731 1 3.9996904
188 775173731 1 -2.0
189 1663070068 1651076122 -2.0
189 1663070068 1651076122 3.9996904
189 1663070068 1651076122 -2.0
190 1852403556 824206179 -2.0
190 1852403556 824206179 3.9996904
190 1852403556 824206179 -2.0
191 1768711012 12321 -2.0
191 1768711012 12321 3.9996904
191 1768711012 12321 -2.0
192 775173731 1 -2.0
192 775173731 1 3.9996904
192 775173731 1 -2.0
193 1646292852 1 -2.0
193 1646292852 1 3.9996904
193 1646292852 1 -2.0
194 824209008 1 -2.0
194 824209008 1 3.9996904
194 824209008 1 -2.0
195 12321 50 -2.0
195 12321 50 3.9996904
195 12321 50 -2.0
196 1 1 -2.0
196 1 1 3.9996904
196 1 1 -2.0
197 1651076122 35979265 -2.0
197 1651076122 35979265 3.9996904
197 1651076122 35979265 -2.0
198 1852403556 1 -2.0
198 1852403556 1 3.9996904
198 1852403556 1 -2.0
199 1768711012 50 -2.0
199 1768711012 50 3.9996904
199 1768711012 50 -2.0
200 775173731 1 -2.0
200 775173731 1 3.9996904
200 775173731 1 -2.0
302 # number of linear terms in all constraints
1 1 1.0
1 2 -1.0
1 101 1.0
2 2 1.0
2 3 -1.0
2 102 1.0
3 3 1.0
3 4 -1.0
3 103 1.0
4 4 1.0
4 5 -1.0
4 104 1.0
5 5 1.0
5 6 -1.0
5 105 1.0
6 6 1.0
6 7 -1.0
6 106 1.0
7 7 1.0
7 8 -1.0
7 107 1.0
8 8 1.0
8 9 -1.0
8 108 1.0
9 9 1.0
9 10 -1.0
9 109 1.0
10 10 1.0
10 11 -1.0
10 110 1.0
11 11 1.0
11 12 -1.0
11 111 1.0
12 12 1.0
12 13 -1.0
12 112 1.0
13 13 1.0
13 14 -1.0
13 113 1.0
14 14 1.0
14 15 -1.0
14 114 1.0
15 15 1.0
15 16 -1.0
15 115 1.0
16 16 1.0
16 17 -1.0
16 116 1.0
17 17 1.0
17 18 -1.0
17 117 1.0
18 18 1.0
18 19 -1.0
18 118 1.0
19 19 1.0
19 20 -1.0
19 119 1.0
20 20 1.0
20 21 -1.0
20 120 1.0
21 21 1.0
21 22 -1.0
21 121 1.0
22 22 1.0
22 23 -1.0
22 122 1.0
23 23 1.0
23 24 -1.0
23 123 1.0
24 24 1.0
24 25 -1.0
24 124 1.0
25 25 1.0
25 26 -1.0
25 125 1.0
26 26 1.0
26 27 -1.0
26 126 1.0
27 27 1.0
27 28 -1.0
27 127 1.0
28 28 1.0
28 29 -1.0
28 128 1.0
29 29 1.0
29 30 -1.0
29 129 1.0
30 30 1.0
30 31 -1.0
30 130 1.0
31 31 1.0
31 32 -1.0
31 131 1.0
32 32 1.0
32 33 -1.0
32 132 1.0
33 33 1.0
33 34 -1.0
33 133 1.0
34 34 1.0
34 35 -1.0
34 134 1.0
35 35 1.0
35 36 -1.0
35 135 1.0
36 36 1.0
36 37 -1.0
36 136 1.0
37 37 1.0
37 38 -1.0
37 137 1.0
38 38 1.0
38 39 -1.0
38 138 1.0
39 39 1.0
39 40 -1.0
39 139 1.0
40 40 1.0
40 41 -1.0
40 140 1.0
41 41 1.0
41 42 -1.0
41 141 1.0
42 42 1.0
42 43 -1.0
42 142 1.0
43 43 1.0
43 44 -1.0
43 143 1.0
44 44 1.0
44 45 -1.0
44 144 1.0
45 45 1.0
45 46 -1.0
45 145 1.0
46 46 1.0
46 47 -1.0
46 146 1.0
47 47 1.0
47 48 -1.0
47 147 1.0
48 48 1.0
48 49 -1.0
48 148 1.0
49 49 1.0
49 50 -1.0
49 149 1.0
50 50 1.0
50 51 -1.0
50 150 1.0
51 51 1.0
51 52 -1.0
51 151 1.0
52 52 1.0
52 53 -1.0
52 152 1.0
53 53 1.0
53 54 -1.0
53 153 1.0
54 54 1.0
54 55 -1.0
54 154 1.0
55 55 1.0
55 56 -1.0
55 155 1.0
56 56 1.0
56 57 -1.0
56 156 1.0
57 57 1.0
57 58 -1.0
57 157 1.0
58 58 1.0
58 59 -1.0
58 158 1.0
59 59 1.0
59 60 -1.0
59 159 1.0
60 60 1.0
60 61 -1.0
60 160 1.0
61 61 1.0
61 62 -1.0
61 161 1.0
62 62 1.0
62 63 -1.0
62 162 1.0
63 63 1.0
63 64 -1.0
63 163 1.0
64 64 1.0
64 65 -1.0
64 164 1.0
65 65 1.0
65 66 -1.0
65 165 1.0
66 66 1.0
66 67 -1.0
66 166 1.0
67 67 1.0
67 68 -1.0
67 167 1.0
68 68 1.0
68 69 -1.0
68 168 1.0
69 69 1.0
69 70 -1.0
69 169 1.0
70 70 1.0
70 71 -1.0
70 170 1.0
71 71 1.0
71 72 -1.0
71 171 1.0
72 72 1.0
72 73 -1.0
72 172 1.0
73 73 1.0
73 74 -1.0
73 173 1.0
74 74 1.0
74 75 -1.0
74 174 1.0
75 75 1.0
75 76 -1.0
75 175 1.0
76 76 1.0
76 77 -1.0
76 176 1.0
77 77 1.0
77 78 -1.0
77 177 1.0
78 78 1.0
78 79 -1.0
78 178 1.0
79 79 1.0
79 80 -1.0
79 179 1.0
80 80 1.0
80 81 -1.0
80 180 1.0
81 81 1.0
81 82 -1.0
81 181 1.0
82 82 1.0
82 83 -1.0
82 182 1.0
83 83 1.0
83 84 -1.0
83 183 1.0
84 84 1.0
84 85 -1.0
84 184 1.0
85 85 1.0
85 86 -1.0
85 185 1.0
86 86 1.0
86 87 -1.0
86 186 1.0
87 87 1.0
87 88 -1.0
87 187 1.0
88 88 1.0
88 89 -1.0
88 188 1.0
89 89 1.0
89 90 -1.0
89 189 1.0
90 90 1.0
90 91 -1.0
90 190 1.0
91 91 1.0
91 92 -1.0
91 191 1.0
92 92 1.0
92 93 -1.0
92 192 1.0
93 93 1.0
93 94 -1.0
93 193 1.0
94 94 1.0
94 95 -1.0
94 194 1.0
95 95 1.0
95 96 -1.0
95 195 1.0
96 96 1.0
96 97 -1.0
96 196 1.0
97 97 1.0
97 98 -1.0
97 197 1.0
98 98 1.0
98 99 -1.0
98 198 1.0
99 99 1.0
99 100 -1.0
99 199 1.0
100 1 -1.0
100 2 1.9998452
101 99 3.9996904
101 100 -2.0
102 100 -4.0
1.79769313486232E+308 # value for infinity
-1.79769313486232E+308 # default left-hand-side value
99 # number of non-default left-hand-sides
1 0.0
2 0.0
3 0.0
4 0.0
5 0.0
6 0.0
7 0.0
8 0.0
9 0.0
10 0.0
11 0.0
12 0.0
13 0.0
14 0.0
15 0.0
16 0.0
17 0.0
18 0.0
19 0.0
20 0.0
21 0.0
22 0.0
23 0.0
24 0.0
25 0.0
26 0.0
27 0.0
28 0.0
29 0.0
30 0.0
31 0.0
32 0.0
33 0.0
34 0.0
35 0.0
36 0.0
37 0.0
38 0.0
39 0.0
40 0.0
41 0.0
42 0.0
43 0.0
44 0.0
45 0.0
46 0.0
47 0.0
48 0.0
49 0.0
50 0.0
51 0.0
52 0.0
53 0.0
54 0.0
55 0.0
56 0.0
57 0.0
58 0.0
59 0.0
60 0.0
61 0.0
62 0.0
63 0.0
64 0.0
65 0.0
66 0.0
67 0.0
68 0.0
69 0.0
70 0.0
71 0.0
72 0.0
73 0.0
74 0.0
75 0.0
76 0.0
77 0.0
78 0.0
79 0.0
80 0.0
81 0.0
82 0.0
83 0.0
84 0.0
85 0.0
86 0.0
87 0.0
88 0.0
89 0.0
90 0.0
91 0.0
92 0.0
93 0.0
94 0.0
95 0.0
96 0.0
97 0.0
98 0.0
99 0.0
0.0 # default right-hand-side value
0 # number of non-default right-hand-sides
1.0 # default variable lower bound value
100 # number of non-default variable lower bounds
100 1.981337073
101 -1.79769313486232E+308
102 -0.01866292665
103 -0.01866292665
104 -0.01866292665
105 -0.01866292665
106 -0.01866292665
107 -0.01866292665
108 -0.01866292665
109 -0.01866292665
110 -0.01866292665
111 -0.01866292665
112 -0.01866292665
113 -0.01866292665
114 -0.01866292665
115 -0.01866292665
116 -0.01866292665
117 -0.01866292665
118 -0.01866292665
119 -0.01866292665
120 -0.01866292665
121 -0.01866292665
122 -0.01866292665
123 -0.01866292665
124 -0.01866292665
125 -0.01866292665
126 -0.01866292665
127 -0.01866292665
128 -0.01866292665
129 -0.01866292665
130 -0.01866292665
131 -0.01866292665
132 -0.01866292665
133 -0.01866292665
134 -0.01866292665
135 -0.01866292665
136 -0.01866292665
137 -0.01866292665
138 -0.01866292665
139 -0.01866292665
140 -0.01866292665
141 -0.01866292665
142 -0.01866292665
143 -0.01866292665
144 -0.01866292665
145 -0.01866292665
146 -0.01866292665
147 -0.01866292665
148 -0.01866292665
149 -0.01866292665
150 -0.01866292665
151 -0.01866292665
152 -0.01866292665
153 -0.01866292665
154 -0.01866292665
155 -0.01866292665
156 -0.01866292665
157 -0.01866292665
158 -0.01866292665
159 -0.01866292665
160 -0.01866292665
161 -0.01866292665
162 -0.01866292665
163 -0.01866292665
164 -0.01866292665
165 -0.01866292665
166 -0.01866292665
167 -0.01866292665
168 -0.01866292665
169 -0.01866292665
170 -0.01866292665
171 -0.01866292665
172 -0.01866292665
173 -0.01866292665
174 -0.01866292665
175 -0.01866292665
176 -0.01866292665
177 -0.01866292665
178 -0.01866292665
179 -0.01866292665
180 -0.01866292665
181 -0.01866292665
182 -0.01866292665
183 -0.01866292665
184 -0.01866292665
185 -0.01866292665
186 -0.01866292665
187 -0.01866292665
188 -0.01866292665
189 -0.01866292665
190 -0.01866292665
191 -0.01866292665
192 -0.01866292665
193 -0.01866292665
194 -0.01866292665
195 -0.01866292665
196 -0.01866292665
197 -0.01866292665
198 -0.01866292665
199 -0.01866292665
2.0 # default variable upper bound value
100 # number of non-default variable upper bounds
1 1.000154824
101 1.79769313486232E+308
102 0.01866292665
103 0.01866292665
104 0.01866292665
105 0.01866292665
106 0.01866292665
107 0.01866292665
108 0.01866292665
109 0.01866292665
110 0.01866292665
111 0.01866292665
112 0.01866292665
113 0.01866292665
114 0.01866292665
115 0.01866292665
116 0.01866292665
117 0.01866292665
118 0.01866292665
119 0.01866292665
120 0.01866292665
121 0.01866292665
122 0.01866292665
123 0.01866292665
124 0.01866292665
125 0.01866292665
126 0.01866292665
127 0.01866292665
128 0.01866292665
129 0.01866292665
130 0.01866292665
131 0.01866292665
132 0.01866292665
133 0.01866292665
134 0.01866292665
135 0.01866292665
136 0.01866292665
137 0.01866292665
138 0.01866292665
139 0.01866292665
140 0.01866292665
141 0.01866292665
142 0.01866292665
143 0.01866292665
144 0.01866292665
145 0.01866292665
146 0.01866292665
147 0.01866292665
148 0.01866292665
149 0.01866292665
150 0.01866292665
151 0.01866292665
152 0.01866292665
153 0.01866292665
154 0.01866292665
155 0.01866292665
156 0.01866292665
157 0.01866292665
158 0.01866292665
159 0.01866292665
160 0.01866292665
161 0.01866292665
162 0.01866292665
163 0.01866292665
164 0.01866292665
165 0.01866292665
166 0.01866292665
167 0.01866292665
168 0.01866292665
169 0.01866292665
170 0.01866292665
171 0.01866292665
172 0.01866292665
173 0.01866292665
174 0.01866292665
175 0.01866292665
176 0.01866292665
177 0.01866292665
178 0.01866292665
179 0.01866292665
180 0.01866292665
181 0.01866292665
182 0.01866292665
183 0.01866292665
184 0.01866292665
185 0.01866292665
186 0.01866292665
187 0.01866292665
188 0.01866292665
189 0.01866292665
190 0.01866292665
191 0.01866292665
192 0.01866292665
193 0.01866292665
194 0.01866292665
195 0.01866292665
196 0.01866292665
197 0.01866292665
198 0.01866292665
199 0.01866292665
0.0 # default variable primal value in starting point
100 # number of non-default variable primal values in starting point
1 1.0
2 1.0
3 1.0
4 1.0
5 1.0
6 1.0
7 1.0
8 1.0
9 1.0
10 1.0
11 1.0
12 1.0
13 1.0
14 1.0
15 1.0
16 1.0
17 1.0
18 1.0
19 1.0
20 1.0
21 1.0
22 1.0
23 1.0
24 1.0
25 1.0
26 1.0
27 1.0
28 1.0
29 1.0
30 1.0
31 1.0
32 1.0
33 1.0
34 1.0
35 1.0
36 1.0
37 1.0
38 1.0
39 1.0
40 1.0
41 1.0
42 1.0
43 1.0
44 1.0
45 1.0
46 1.0
47 1.0
48 1.0
49 1.0
50 1.0
51 1.0
52 1.0
53 1.0
54 1.0
55 1.0
56 1.0
57 1.0
58 1.0
59 1.0
60 1.0
61 1.0
62 1.0
63 1.0
64 1.0
65 1.0
66 1.0
67 1.0
68 1.0
69 1.0
70 1.0
71 1.0
72 1.0
73 1.0
74 1.0
75 1.0
76 1.0
77 1.0
78 1.0
79 1.0
80 1.0
81 1.0
82 1.0
83 1.0
84 1.0
85 1.0
86 1.0
87 1.0
88 1.0
89 1.0
90 1.0
91 1.0
92 1.0
93 1.0
94 1.0
95 1.0
96 1.0
97 1.0
98 1.0
99 1.0
100 1.981337073
0.0 # default constraint dual value in starting point
0 # number of non-default constraint dual values in starting point
0.0 # default variable bound dual value in starting point
0 # number of non-default variable bound dual values in starting point
0 # number of non-default variable names
0 # number of non-default constraint names
